%nprocs=40
%mem=10GB
%chk=4-methyllimidazole.chk
# B3LYP/6-31G(d) opt=tight scf=tight pop=full

4-Methylimidazole Geometry Optimisation

0 1
C         -4.39056        1.60709        0.00000
C         -2.59202        1.57177        0.00000
N         -5.62485        3.40845       -0.00000
H         -4.88066        0.69890        0.00000
C         -3.72051        4.99789        0.00000
N         -1.81617        4.07955       -0.00000
H         -3.84722        6.02208        0.00000
C         -1.25193       -0.12362        0.00000
H         -1.82219       -1.02900        0.00000
H         -0.63504       -0.09065        0.87365
H         -0.63504       -0.09065       -0.87365
H         -0.91355        4.47262       -0.00000
