%nprocs=40
%mem=10GB
%chk=4-methylimidazole-freq.chk
# B3LYP/6-31G(d) freq

Frequency of 4-Methylimidazole

0 1
C          1.15039       -0.10181        0.00000
C          0.00000        0.65107        0.00000
N          0.87076       -1.45233        0.00000
H          2.17051        0.26014        0.00000
C         -0.44040       -1.52770        0.00000
N         -1.01935       -0.28700        0.00000
H         -1.02530       -2.43819        0.00000
C         -0.24353        2.12461        0.00000
H          0.71254        2.65580        0.00000
H         -0.80353        2.45386        0.88556
H         -0.80353        2.45386       -0.88556
H         -2.00936       -0.08714        0.00000
